(declare-fun _substvar_136_ () Bool)
(declare-fun v2 () Bool)
(declare-fun i3 () Int)
(declare-fun i4 () Int)
(declare-fun v15 () Bool)
(declare-fun i5 () Int)
(declare-fun v29 () Bool)
(declare-fun v43 () Bool)
(assert _substvar_136_)
(assert (> i5 920))
(assert (< 528 (* (/ i4 61) 59)))
(assert (or v43 v2))
(assert (or (xor v15 v29) (> i5 920) (distinct i4 (- i3))))
(assert (distinct i4 (- i3)))
(check-sat)
